(set-info :smt-lib-version 2.6)
(set-logic UFNIA)
(set-info :source |
Generated by: Geoff Sutcliffe
Generated on: 2026-03-11
Generator: TPTPWorld
Application: Benchmarking automated theorem provers
Time limit: 120.0

These benchmarks are translations from the TPTP Library (Thousands of
Problems for Theorem Provers), see http://www.cs.miami.edu/~tptp/

The TPTP is maintained by Geoff Sutcliffe, and he contributed this
selection of benchmarks to SMT-LIB.  They were exported from the
v9.2.1 realease of TPTP.
|)
(set-info :category "industrial")
(set-info :status "unknown")
; SZS status Success
(declare-sort $$unsorted 0)
(declare-sort tptp.uni 0)
(declare-sort tptp.ty 0)
(declare-fun tptp.sort (tptp.ty tptp.uni) Bool)
(declare-fun tptp.witness (tptp.ty) tptp.uni)
(assert (forall ((A tptp.ty)) (tptp.sort A (tptp.witness A))))
(declare-fun tptp.int () tptp.ty)
(declare-fun tptp.real () tptp.ty)
(declare-sort tptp.bool 0)
(declare-fun tptp.bool1 () tptp.ty)
(declare-fun tptp.true () tptp.bool)
(declare-fun tptp.false () tptp.bool)
(declare-fun tptp.match_bool (tptp.ty tptp.bool tptp.uni tptp.uni) tptp.uni)
(assert (forall ((A tptp.ty) (X tptp.bool) (X1 tptp.uni) (X2 tptp.uni)) (tptp.sort A (tptp.match_bool A X X1 X2))))
(assert (forall ((A tptp.ty) (Z tptp.uni) (Z1 tptp.uni)) (=> (tptp.sort A Z) (= (tptp.match_bool A tptp.true Z Z1) Z))))
(assert (forall ((A tptp.ty) (Z tptp.uni) (Z1 tptp.uni)) (=> (tptp.sort A Z1) (= (tptp.match_bool A tptp.false Z Z1) Z1))))
(assert (not (= tptp.true tptp.false)))
(assert (forall ((U tptp.bool)) (or (= U tptp.true) (= U tptp.false))))
(declare-sort tptp.tuple0 0)
(declare-fun tptp.tuple01 () tptp.ty)
(declare-fun tptp.tuple02 () tptp.tuple0)
(assert (forall ((U tptp.tuple0)) (= U tptp.tuple02)))
(declare-fun tptp.qtmark () tptp.ty)
(assert (forall ((X Int) (Y Int) (Z Int)) (=> (<= X Y) (=> (<= 0 Z) (<= (* X Z) (* Y Z))))))
(declare-sort tptp.expr 0)
(declare-fun tptp.expr1 () tptp.ty)
(declare-fun tptp.cte (Int) tptp.expr)
(declare-fun tptp.sub (tptp.expr tptp.expr) tptp.expr)
(declare-fun tptp.match_expr (tptp.ty tptp.expr tptp.uni tptp.uni) tptp.uni)
(assert (forall ((A tptp.ty) (X tptp.expr) (X1 tptp.uni) (X2 tptp.uni)) (tptp.sort A (tptp.match_expr A X X1 X2))))
(assert (forall ((A tptp.ty) (Z tptp.uni) (Z1 tptp.uni) (U Int)) (=> (tptp.sort A Z) (= (tptp.match_expr A (tptp.cte U) Z Z1) Z))))
(assert (forall ((A tptp.ty) (Z tptp.uni) (Z1 tptp.uni) (U tptp.expr) (U1 tptp.expr)) (=> (tptp.sort A Z1) (= (tptp.match_expr A (tptp.sub U U1) Z Z1) Z1))))
(assert (forall ((U Int) (V tptp.expr) (V1 tptp.expr)) (not (= (tptp.cte U) (tptp.sub V V1)))))
(declare-fun tptp.cte_proj_1 (tptp.expr) Int)
(assert (forall ((U Int)) (= (tptp.cte_proj_1 (tptp.cte U)) U)))
(declare-fun tptp.sub_proj_1 (tptp.expr) tptp.expr)
(assert (forall ((U tptp.expr) (U1 tptp.expr)) (= (tptp.sub_proj_1 (tptp.sub U U1)) U)))
(declare-fun tptp.sub_proj_2 (tptp.expr) tptp.expr)
(assert (forall ((U tptp.expr) (U1 tptp.expr)) (= (tptp.sub_proj_2 (tptp.sub U U1)) U1)))
(assert (forall ((U tptp.expr)) (or (= U (tptp.cte (tptp.cte_proj_1 U))) (= U (tptp.sub (tptp.sub_proj_1 U) (tptp.sub_proj_2 U))))))
(declare-sort tptp.value 0)
(declare-fun tptp.value1 () tptp.ty)
(declare-fun tptp.vnum (Int) tptp.value)
(declare-fun tptp.underflow () tptp.value)
(declare-fun tptp.match_value (tptp.ty tptp.value tptp.uni tptp.uni) tptp.uni)
(assert (forall ((A tptp.ty) (X tptp.value) (X1 tptp.uni) (X2 tptp.uni)) (tptp.sort A (tptp.match_value A X X1 X2))))
(assert (forall ((A tptp.ty) (Z tptp.uni) (Z1 tptp.uni) (U Int)) (=> (tptp.sort A Z) (= (tptp.match_value A (tptp.vnum U) Z Z1) Z))))
(assert (forall ((A tptp.ty) (Z tptp.uni) (Z1 tptp.uni)) (=> (tptp.sort A Z1) (= (tptp.match_value A tptp.underflow Z Z1) Z1))))
(assert (forall ((U Int)) (not (= (tptp.vnum U) tptp.underflow))))
(declare-fun tptp.vnum_proj_1 (tptp.value) Int)
(assert (forall ((U Int)) (= (tptp.vnum_proj_1 (tptp.vnum U)) U)))
(assert (forall ((U tptp.value)) (or (= U (tptp.vnum (tptp.vnum_proj_1 U))) (= U tptp.underflow))))
(declare-fun tptp.eval_0 (tptp.expr) tptp.value)
(assert (and (forall ((X Int)) (let ((_let_1 (tptp.eval_0 (tptp.cte X)))) (let ((_let_2 (<= 0 X))) (and (=> _let_2 (= _let_1 (tptp.vnum X))) (=> (not _let_2) (= _let_1 tptp.underflow)))))) (forall ((X tptp.expr) (X1 tptp.expr)) (and (forall ((X2 Int)) (=> (= (tptp.eval_0 X) (tptp.vnum X2)) (and (forall ((X3 Int)) (let ((_let_1 (tptp.eval_0 (tptp.sub X X1)))) (let ((_let_2 (<= X3 X2))) (=> (= (tptp.eval_0 X1) (tptp.vnum X3)) (and (=> _let_2 (= _let_1 (tptp.vnum (- X2 X3)))) (=> (not _let_2) (= _let_1 tptp.underflow))))))) (=> (= (tptp.eval_0 X1) tptp.underflow) (= (tptp.eval_0 (tptp.sub X X1)) tptp.underflow))))) (=> (= (tptp.eval_0 X) tptp.underflow) (= (tptp.eval_0 (tptp.sub X X1)) tptp.underflow))))))
(declare-fun tptp.func (tptp.ty tptp.ty) tptp.ty)
(declare-fun tptp.infix_at (tptp.ty tptp.ty tptp.uni tptp.uni) tptp.uni)
(assert (forall ((A tptp.ty) (B tptp.ty) (X tptp.uni) (X1 tptp.uni)) (tptp.sort B (tptp.infix_at B A X X1))))
(declare-fun tptp.eval_1 (tptp.ty tptp.expr tptp.uni) tptp.uni)
(assert (forall ((A tptp.ty) (X tptp.expr) (X1 tptp.uni)) (tptp.sort A (tptp.eval_1 A X X1))))
(declare-fun tptp.fc (tptp.ty tptp.uni Int) tptp.uni)
(assert (forall ((A tptp.ty) (X tptp.uni) (X1 Int)) (tptp.sort (tptp.func tptp.value1 A) (tptp.fc A X X1))))
(declare-fun tptp.fc1 (tptp.ty tptp.uni tptp.expr) tptp.uni)
(assert (forall ((A tptp.ty) (X tptp.uni) (X1 tptp.expr)) (tptp.sort (tptp.func tptp.value1 A) (tptp.fc1 A X X1))))
(declare-fun tptp.t2tb (tptp.value) tptp.uni)
(assert (forall ((X tptp.value)) (tptp.sort tptp.value1 (tptp.t2tb X))))
(declare-fun tptp.tb2t (tptp.uni) tptp.value)
(assert (forall ((I tptp.value)) (= (tptp.tb2t (tptp.t2tb I)) I)))
(assert (forall ((J tptp.uni)) (= (tptp.t2tb (tptp.tb2t J)) J)))
(assert (forall ((A tptp.ty) (K tptp.uni) (X Int) (V2 tptp.value)) (let ((_let_1 (tptp.infix_at A tptp.value1 K (tptp.t2tb tptp.underflow)))) (let ((_let_2 (tptp.infix_at A tptp.value1 (tptp.fc A K X) (tptp.t2tb V2)))) (let ((_let_3 (tptp.vnum_proj_1 V2))) (let ((_let_4 (<= _let_3 X))) (and (=> _let_4 (= _let_2 (tptp.match_value A V2 (tptp.infix_at A tptp.value1 K (tptp.t2tb (tptp.vnum (- X _let_3)))) _let_1))) (=> (not _let_4) (= _let_2 (tptp.match_value A V2 _let_1 _let_1))))))))))
(assert (forall ((A tptp.ty) (K tptp.uni) (X tptp.expr) (V1 tptp.value)) (= (tptp.infix_at A tptp.value1 (tptp.fc1 A K X) (tptp.t2tb V1)) (tptp.match_value A V1 (tptp.eval_1 A X (tptp.fc A K (tptp.vnum_proj_1 V1))) (tptp.infix_at A tptp.value1 K (tptp.t2tb tptp.underflow))))))
(assert (forall ((A tptp.ty) (K tptp.uni)) (and (forall ((X Int)) (let ((_let_1 (tptp.eval_1 A (tptp.cte X) K))) (let ((_let_2 (<= 0 X))) (and (=> _let_2 (= _let_1 (tptp.infix_at A tptp.value1 K (tptp.t2tb (tptp.vnum X))))) (=> (not _let_2) (= _let_1 (tptp.infix_at A tptp.value1 K (tptp.t2tb tptp.underflow)))))))) (forall ((X tptp.expr) (X1 tptp.expr)) (= (tptp.eval_1 A (tptp.sub X X1) K) (tptp.eval_1 A X (tptp.fc1 A K X1)))))))
(assert (forall ((A tptp.ty) (E tptp.expr) (K tptp.uni)) (= (tptp.eval_1 A E K) (tptp.infix_at A tptp.value1 K (tptp.t2tb (tptp.eval_0 E))))))
(declare-sort tptp.value_mngt_value 0)
(declare-fun tptp.fc2 () tptp.value_mngt_value)
(declare-fun tptp.t2tb1 (tptp.value_mngt_value) tptp.uni)
(assert (forall ((X tptp.value_mngt_value)) (tptp.sort (tptp.func tptp.value1 tptp.value1) (tptp.t2tb1 X))))
(declare-fun tptp.tb2t1 (tptp.uni) tptp.value_mngt_value)
(assert (forall ((I tptp.value_mngt_value)) (= (tptp.tb2t1 (tptp.t2tb1 I)) I)))
(assert (forall ((J tptp.uni)) (=> (tptp.sort (tptp.func tptp.value1 tptp.value1) J) (= (tptp.t2tb1 (tptp.tb2t1 J)) J))))
(assert (forall ((N tptp.value)) (= (tptp.tb2t (tptp.infix_at tptp.value1 tptp.value1 (tptp.t2tb1 tptp.fc2) (tptp.t2tb N))) N)))
(assert (forall ((P tptp.expr)) (= (tptp.tb2t (tptp.eval_1 tptp.value1 P (tptp.t2tb1 tptp.fc2))) (tptp.eval_0 P))))
(declare-fun tptp.eval_2 (tptp.ty tptp.expr tptp.uni tptp.uni) tptp.uni)
(assert (forall ((A tptp.ty) (X tptp.expr) (X1 tptp.uni) (X2 tptp.uni)) (tptp.sort A (tptp.eval_2 A X X1 X2))))
(declare-fun tptp.eval_2a (tptp.ty tptp.expr tptp.uni tptp.uni) tptp.uni)
(assert (forall ((A tptp.ty) (X tptp.expr) (X1 tptp.uni) (X2 tptp.uni)) (tptp.sort (tptp.func tptp.int A) (tptp.eval_2a A X X1 X2))))
(declare-fun tptp.eval_2b (tptp.ty Int tptp.uni tptp.uni) tptp.uni)
(assert (forall ((A tptp.ty) (X Int) (X1 tptp.uni) (X2 tptp.uni)) (tptp.sort (tptp.func tptp.int A) (tptp.eval_2b A X X1 X2))))
(declare-fun tptp.t2tb2 (tptp.tuple0) tptp.uni)
(assert (forall ((X tptp.tuple0)) (tptp.sort tptp.tuple01 (tptp.t2tb2 X))))
(declare-fun tptp.tb2t2 (tptp.uni) tptp.tuple0)
(assert (forall ((I tptp.tuple0)) (= (tptp.tb2t2 (tptp.t2tb2 I)) I)))
(assert (forall ((J tptp.uni)) (=> (tptp.sort tptp.tuple01 J) (= (tptp.t2tb2 (tptp.tb2t2 J)) J))))
(declare-fun tptp.t2tb3 (Int) tptp.uni)
(assert (forall ((X Int)) (tptp.sort tptp.int (tptp.t2tb3 X))))
(declare-fun tptp.tb2t3 (tptp.uni) Int)
(assert (forall ((I Int)) (= (tptp.tb2t3 (tptp.t2tb3 I)) I)))
(assert (forall ((J tptp.uni)) (= (tptp.t2tb3 (tptp.tb2t3 J)) J)))
(assert (forall ((A tptp.ty) (K tptp.uni) (Kerr tptp.uni)) (and (forall ((X Int)) (let ((_let_1 (tptp.eval_2 A (tptp.cte X) K Kerr))) (let ((_let_2 (<= 0 X))) (and (=> _let_2 (= _let_1 (tptp.infix_at A tptp.int K (tptp.t2tb3 X)))) (=> (not _let_2) (= _let_1 (tptp.infix_at A tptp.tuple01 Kerr (tptp.t2tb2 tptp.tuple02)))))))) (forall ((X tptp.expr) (X1 tptp.expr)) (= (tptp.eval_2 A (tptp.sub X X1) K Kerr) (tptp.eval_2 A X (tptp.eval_2a A X1 K Kerr) Kerr))))))
(assert (forall ((A tptp.ty) (E2 tptp.expr) (K tptp.uni) (Kerr tptp.uni) (V1 Int)) (= (tptp.infix_at A tptp.int (tptp.eval_2a A E2 K Kerr) (tptp.t2tb3 V1)) (tptp.eval_2 A E2 (tptp.eval_2b A V1 K Kerr) Kerr))))
(assert (forall ((A tptp.ty) (V1 Int) (K tptp.uni) (Kerr tptp.uni) (V2 Int)) (let ((_let_1 (tptp.infix_at A tptp.int (tptp.eval_2b A V1 K Kerr) (tptp.t2tb3 V2)))) (let ((_let_2 (<= V2 V1))) (and (=> _let_2 (= _let_1 (tptp.infix_at A tptp.int K (tptp.t2tb3 (- V1 V2))))) (=> (not _let_2) (= _let_1 (tptp.infix_at A tptp.tuple01 Kerr (tptp.t2tb2 tptp.tuple02)))))))))
(assert (forall ((A tptp.ty) (K tptp.uni) (E1 tptp.expr) (E2 tptp.expr) (Kerr tptp.uni)) (= (tptp.eval_2 A (tptp.sub E1 E2) K Kerr) (tptp.eval_2 A E1 (tptp.eval_2a A E2 K Kerr) Kerr))))
(assert (forall ((A tptp.ty) (E tptp.expr) (Kerr tptp.uni) (K tptp.uni)) (let ((_let_1 (tptp.eval_0 E))) (= (tptp.eval_2 A E K Kerr) (tptp.match_value A _let_1 (tptp.infix_at A tptp.int K (tptp.t2tb3 (tptp.vnum_proj_1 _let_1))) (tptp.infix_at A tptp.tuple01 Kerr (tptp.t2tb2 tptp.tuple02)))))))
(declare-sort tptp.int_mngt_value 0)
(declare-fun tptp.vnum_closure () tptp.int_mngt_value)
(declare-sort tptp.lprp_mngt_value 0)
(declare-fun tptp.fc3 () tptp.lprp_mngt_value)
(declare-fun tptp.t2tb4 (tptp.int_mngt_value) tptp.uni)
(assert (forall ((X tptp.int_mngt_value)) (tptp.sort (tptp.func tptp.int tptp.value1) (tptp.t2tb4 X))))
(declare-fun tptp.tb2t4 (tptp.uni) tptp.int_mngt_value)
(assert (forall ((I tptp.int_mngt_value)) (= (tptp.tb2t4 (tptp.t2tb4 I)) I)))
(assert (forall ((J tptp.uni)) (=> (tptp.sort (tptp.func tptp.int tptp.value1) J) (= (tptp.t2tb4 (tptp.tb2t4 J)) J))))
(assert (forall ((Y Int)) (= (tptp.tb2t (tptp.infix_at tptp.value1 tptp.int (tptp.t2tb4 tptp.vnum_closure) (tptp.t2tb3 Y))) (tptp.vnum Y))))
(declare-fun tptp.t2tb5 (tptp.lprp_mngt_value) tptp.uni)
(assert (forall ((X tptp.lprp_mngt_value)) (tptp.sort (tptp.func tptp.tuple01 tptp.value1) (tptp.t2tb5 X))))
(declare-fun tptp.tb2t5 (tptp.uni) tptp.lprp_mngt_value)
(assert (forall ((I tptp.lprp_mngt_value)) (= (tptp.tb2t5 (tptp.t2tb5 I)) I)))
(assert (forall ((J tptp.uni)) (=> (tptp.sort (tptp.func tptp.tuple01 tptp.value1) J) (= (tptp.t2tb5 (tptp.tb2t5 J)) J))))
(assert (forall ((U tptp.tuple0)) (= (tptp.tb2t (tptp.infix_at tptp.value1 tptp.tuple01 (tptp.t2tb5 tptp.fc3) (tptp.t2tb2 U))) tptp.underflow)))
(assert (forall ((P tptp.expr)) (= (tptp.tb2t (tptp.eval_2 tptp.value1 P (tptp.t2tb4 tptp.vnum_closure) (tptp.t2tb5 tptp.fc3))) (tptp.eval_0 P))))
(declare-fun tptp.eval_3 (tptp.expr tptp.int_mngt_value) tptp.value)
(declare-fun tptp.eval_3a (tptp.expr tptp.int_mngt_value) tptp.int_mngt_value)
(declare-fun tptp.eval_3b (Int tptp.int_mngt_value) tptp.int_mngt_value)
(assert (forall ((K tptp.int_mngt_value)) (and (forall ((X Int)) (let ((_let_1 (tptp.eval_3 (tptp.cte X) K))) (let ((_let_2 (<= 0 X))) (and (=> _let_2 (= _let_1 (tptp.tb2t (tptp.infix_at tptp.value1 tptp.int (tptp.t2tb4 K) (tptp.t2tb3 X))))) (=> (not _let_2) (= _let_1 tptp.underflow)))))) (forall ((X tptp.expr) (X1 tptp.expr)) (= (tptp.eval_3 (tptp.sub X X1) K) (tptp.eval_3 X (tptp.eval_3a X1 K)))))))
(assert (forall ((E2 tptp.expr) (K tptp.int_mngt_value) (V1 Int)) (= (tptp.tb2t (tptp.infix_at tptp.value1 tptp.int (tptp.t2tb4 (tptp.eval_3a E2 K)) (tptp.t2tb3 V1))) (tptp.eval_3 E2 (tptp.eval_3b V1 K)))))
(assert (forall ((V1 Int) (K tptp.int_mngt_value) (V2 Int)) (let ((_let_1 (tptp.tb2t (tptp.infix_at tptp.value1 tptp.int (tptp.t2tb4 (tptp.eval_3b V1 K)) (tptp.t2tb3 V2))))) (let ((_let_2 (<= V2 V1))) (and (=> _let_2 (= _let_1 (tptp.tb2t (tptp.infix_at tptp.value1 tptp.int (tptp.t2tb4 K) (tptp.t2tb3 (- V1 V2)))))) (=> (not _let_2) (= _let_1 tptp.underflow)))))))
(assert (forall ((E tptp.expr) (K tptp.int_mngt_value)) (let ((_let_1 (tptp.eval_0 E))) (= (tptp.eval_3 E K) (tptp.tb2t (tptp.match_value tptp.value1 _let_1 (tptp.infix_at tptp.value1 tptp.int (tptp.t2tb4 K) (tptp.t2tb3 (tptp.vnum_proj_1 _let_1))) (tptp.t2tb tptp.underflow)))))))
(assert (forall ((P tptp.expr)) (= (tptp.eval_3 P tptp.vnum_closure) (tptp.eval_0 P))))
(declare-sort tptp.cont 0)
(declare-fun tptp.cont1 () tptp.ty)
(declare-fun tptp.i () tptp.cont)
(declare-fun tptp.a (tptp.expr tptp.cont) tptp.cont)
(declare-fun tptp.b (Int tptp.cont) tptp.cont)
(declare-fun tptp.match_cont (tptp.ty tptp.cont tptp.uni tptp.uni tptp.uni) tptp.uni)
(assert (forall ((A tptp.ty) (X tptp.cont) (X1 tptp.uni) (X2 tptp.uni) (X3 tptp.uni)) (tptp.sort A (tptp.match_cont A X X1 X2 X3))))
(assert (forall ((A tptp.ty) (Z tptp.uni) (Z1 tptp.uni) (Z2 tptp.uni)) (=> (tptp.sort A Z) (= (tptp.match_cont A tptp.i Z Z1 Z2) Z))))
(assert (forall ((A tptp.ty) (Z tptp.uni) (Z1 tptp.uni) (Z2 tptp.uni) (U tptp.expr) (U1 tptp.cont)) (=> (tptp.sort A Z1) (= (tptp.match_cont A (tptp.a U U1) Z Z1 Z2) Z1))))
(assert (forall ((A tptp.ty) (Z tptp.uni) (Z1 tptp.uni) (Z2 tptp.uni) (U Int) (U1 tptp.cont)) (=> (tptp.sort A Z2) (= (tptp.match_cont A (tptp.b U U1) Z Z1 Z2) Z2))))
(assert (forall ((V tptp.expr) (V1 tptp.cont)) (not (= tptp.i (tptp.a V V1)))))
(assert (forall ((V Int) (V1 tptp.cont)) (not (= tptp.i (tptp.b V V1)))))
(assert (forall ((U tptp.expr) (U1 tptp.cont) (V Int) (V1 tptp.cont)) (not (= (tptp.a U U1) (tptp.b V V1)))))
(declare-fun tptp.a_proj_1 (tptp.cont) tptp.expr)
(assert (forall ((U tptp.expr) (U1 tptp.cont)) (= (tptp.a_proj_1 (tptp.a U U1)) U)))
(declare-fun tptp.a_proj_2 (tptp.cont) tptp.cont)
(assert (forall ((U tptp.expr) (U1 tptp.cont)) (= (tptp.a_proj_2 (tptp.a U U1)) U1)))
(declare-fun tptp.b_proj_1 (tptp.cont) Int)
(assert (forall ((U Int) (U1 tptp.cont)) (= (tptp.b_proj_1 (tptp.b U U1)) U)))
(declare-fun tptp.b_proj_2 (tptp.cont) tptp.cont)
(assert (forall ((U Int) (U1 tptp.cont)) (= (tptp.b_proj_2 (tptp.b U U1)) U1)))
(assert (forall ((U tptp.cont)) (or (= U tptp.i) (= U (tptp.a (tptp.a_proj_1 U) (tptp.a_proj_2 U))) (= U (tptp.b (tptp.b_proj_1 U) (tptp.b_proj_2 U))))))
(declare-fun tptp.eval_cont (tptp.cont tptp.value tptp.value) Bool)
(assert (forall ((K tptp.cont)) (tptp.eval_cont K tptp.underflow tptp.underflow)))
(assert (forall ((E2 tptp.expr) (K tptp.cont) (V Int) (R tptp.value)) (=> (tptp.eval_cont (tptp.b V K) (tptp.eval_0 E2) R) (tptp.eval_cont (tptp.a E2 K) (tptp.vnum V) R))))
(assert (forall ((V1 Int) (K tptp.cont) (V Int) (R tptp.value)) (let ((_let_1 (<= V V1))) (=> (or (and _let_1 (tptp.eval_cont K (tptp.vnum (- V1 V)) R)) (and (not _let_1) (tptp.eval_cont K tptp.underflow R))) (tptp.eval_cont (tptp.b V1 K) (tptp.vnum V) R)))))
(assert (forall ((V Int)) (let ((_let_1 (tptp.vnum V))) (tptp.eval_cont tptp.i _let_1 _let_1))))
(assert (forall ((Z tptp.cont) (Z1 tptp.value) (Z2 tptp.value)) (=> (tptp.eval_cont Z Z1 Z2) (or (exists ((K tptp.cont)) (and (= Z K) (= Z1 tptp.underflow) (= Z2 tptp.underflow))) (exists ((E2 tptp.expr) (K tptp.cont) (V Int) (R tptp.value)) (and (tptp.eval_cont (tptp.b V K) (tptp.eval_0 E2) R) (= Z (tptp.a E2 K)) (= Z1 (tptp.vnum V)) (= Z2 R))) (exists ((V1 Int) (K tptp.cont) (V Int) (R tptp.value)) (let ((_let_1 (<= V V1))) (and (=> _let_1 (tptp.eval_cont K (tptp.vnum (- V1 V)) R)) (=> (not _let_1) (tptp.eval_cont K tptp.underflow R)) (= Z (tptp.b V1 K)) (= Z1 (tptp.vnum V)) (= Z2 R)))) (exists ((V Int)) (let ((_let_1 (tptp.vnum V))) (and (= Z tptp.i) (= Z1 _let_1) (= Z2 _let_1))))))))
(declare-fun tptp.size_e (tptp.expr) Int)
(assert (and (forall ((X Int)) (= (tptp.size_e (tptp.cte X)) 1)) (forall ((X tptp.expr) (X1 tptp.expr)) (= (tptp.size_e (tptp.sub X X1)) (+ (+ 3 (tptp.size_e X)) (tptp.size_e X1))))))
(assert (forall ((E tptp.expr)) (<= 1 (tptp.size_e E))))
(declare-fun tptp.eval_01 (tptp.expr) Int)
(assert (and (forall ((X Int)) (= (tptp.eval_01 (tptp.cte X)) X)) (forall ((X tptp.expr) (X1 tptp.expr)) (= (tptp.eval_01 (tptp.sub X X1)) (- (tptp.eval_01 X) (tptp.eval_01 X1))))))
(declare-sort tptp.cont2 0)
(declare-fun tptp.cont3 () tptp.ty)
(declare-fun tptp.a1 (tptp.expr tptp.cont2) tptp.cont2)
(declare-fun tptp.a2 (Int tptp.cont2) tptp.cont2)
(declare-fun tptp.i1 () tptp.cont2)
(declare-fun tptp.match_cont1 (tptp.ty tptp.cont2 tptp.uni tptp.uni tptp.uni) tptp.uni)
(assert (forall ((A tptp.ty) (X tptp.cont2) (X1 tptp.uni) (X2 tptp.uni) (X3 tptp.uni)) (tptp.sort A (tptp.match_cont1 A X X1 X2 X3))))
(assert (forall ((A tptp.ty) (Z tptp.uni) (Z1 tptp.uni) (Z2 tptp.uni) (U tptp.expr) (U1 tptp.cont2)) (=> (tptp.sort A Z) (= (tptp.match_cont1 A (tptp.a1 U U1) Z Z1 Z2) Z))))
(assert (forall ((A tptp.ty) (Z tptp.uni) (Z1 tptp.uni) (Z2 tptp.uni) (U Int) (U1 tptp.cont2)) (=> (tptp.sort A Z1) (= (tptp.match_cont1 A (tptp.a2 U U1) Z Z1 Z2) Z1))))
(assert (forall ((A tptp.ty) (Z tptp.uni) (Z1 tptp.uni) (Z2 tptp.uni)) (=> (tptp.sort A Z2) (= (tptp.match_cont1 A tptp.i1 Z Z1 Z2) Z2))))
(assert (forall ((U tptp.expr) (U1 tptp.cont2) (V Int) (V1 tptp.cont2)) (not (= (tptp.a1 U U1) (tptp.a2 V V1)))))
(assert (forall ((U tptp.expr) (U1 tptp.cont2)) (not (= (tptp.a1 U U1) tptp.i1))))
(assert (forall ((U Int) (U1 tptp.cont2)) (not (= (tptp.a2 U U1) tptp.i1))))
(declare-fun tptp.a1_proj_1 (tptp.cont2) tptp.expr)
(assert (forall ((U tptp.expr) (U1 tptp.cont2)) (= (tptp.a1_proj_1 (tptp.a1 U U1)) U)))
(declare-fun tptp.a1_proj_2 (tptp.cont2) tptp.cont2)
(assert (forall ((U tptp.expr) (U1 tptp.cont2)) (= (tptp.a1_proj_2 (tptp.a1 U U1)) U1)))
(declare-fun tptp.a2_proj_1 (tptp.cont2) Int)
(assert (forall ((U Int) (U1 tptp.cont2)) (= (tptp.a2_proj_1 (tptp.a2 U U1)) U)))
(declare-fun tptp.a2_proj_2 (tptp.cont2) tptp.cont2)
(assert (forall ((U Int) (U1 tptp.cont2)) (= (tptp.a2_proj_2 (tptp.a2 U U1)) U1)))
(assert (forall ((U tptp.cont2)) (or (= U (tptp.a1 (tptp.a1_proj_1 U) (tptp.a1_proj_2 U))) (= U (tptp.a2 (tptp.a2_proj_1 U) (tptp.a2_proj_2 U))) (= U tptp.i1))))
(declare-fun tptp.eval_cont1 (tptp.cont2 Int Int) Bool)
(assert (forall ((E2 tptp.expr) (K tptp.cont2) (V Int) (R Int)) (=> (tptp.eval_cont1 (tptp.a2 V K) (tptp.eval_01 E2) R) (tptp.eval_cont1 (tptp.a1 E2 K) V R))))
(assert (forall ((V1 Int) (K tptp.cont2) (V Int) (R Int)) (=> (tptp.eval_cont1 K (- V1 V) R) (tptp.eval_cont1 (tptp.a2 V1 K) V R))))
(assert (forall ((V Int)) (tptp.eval_cont1 tptp.i1 V V)))
(assert (forall ((Z tptp.cont2) (Z1 Int) (Z2 Int)) (=> (tptp.eval_cont1 Z Z1 Z2) (or (exists ((E2 tptp.expr) (K tptp.cont2) (V Int) (R Int)) (and (tptp.eval_cont1 (tptp.a2 V K) (tptp.eval_01 E2) R) (= Z (tptp.a1 E2 K)) (= Z1 V) (= Z2 R))) (exists ((V1 Int) (K tptp.cont2) (V Int) (R Int)) (and (tptp.eval_cont1 K (- V1 V) R) (= Z (tptp.a2 V1 K)) (= Z1 V) (= Z2 R))) (exists ((V Int)) (and (= Z tptp.i1) (= Z1 V) (= Z2 V)))))))
(declare-fun tptp.size_e1 (tptp.expr) Int)
(assert (and (forall ((X Int)) (= (tptp.size_e1 (tptp.cte X)) 1)) (forall ((X tptp.expr) (X1 tptp.expr)) (= (tptp.size_e1 (tptp.sub X X1)) (+ (+ 3 (tptp.size_e1 X)) (tptp.size_e1 X1))))))
(assert (forall ((E tptp.expr)) (<= 1 (tptp.size_e1 E))))
(declare-fun tptp.size_c (tptp.cont2) Int)
(assert (and (forall ((X tptp.expr) (X1 tptp.cont2)) (= (tptp.size_c (tptp.a1 X X1)) (+ (+ 2 (tptp.size_e1 X)) (tptp.size_c X1)))) (forall ((X Int) (X1 tptp.cont2)) (= (tptp.size_c (tptp.a2 X X1)) (+ 1 (tptp.size_c X1)))) (= (tptp.size_c tptp.i1) 0)))
(assert (forall ((C tptp.cont2)) (<= 0 (tptp.size_c C))))
(declare-fun tptp.size_c1 (tptp.cont) Int)
(assert (and (= (tptp.size_c1 tptp.i) 0) (forall ((X tptp.expr) (X1 tptp.cont)) (= (tptp.size_c1 (tptp.a X X1)) (+ (+ 2 (tptp.size_e1 X)) (tptp.size_c1 X1)))) (forall ((X Int) (X1 tptp.cont)) (= (tptp.size_c1 (tptp.b X X1)) (+ 1 (tptp.size_c1 X1))))))
(assert (forall ((C tptp.cont)) (<= 0 (tptp.size_c1 C))))
(declare-sort tptp.context 0)
(declare-fun tptp.context1 () tptp.ty)
(declare-fun tptp.empty () tptp.context)
(declare-fun tptp.left (tptp.context tptp.expr) tptp.context)
(declare-fun tptp.right (Int tptp.context) tptp.context)
(declare-fun tptp.match_context (tptp.ty tptp.context tptp.uni tptp.uni tptp.uni) tptp.uni)
(assert (forall ((A tptp.ty) (X tptp.context) (X1 tptp.uni) (X2 tptp.uni) (X3 tptp.uni)) (tptp.sort A (tptp.match_context A X X1 X2 X3))))
(assert (forall ((A tptp.ty) (Z tptp.uni) (Z1 tptp.uni) (Z2 tptp.uni)) (=> (tptp.sort A Z) (= (tptp.match_context A tptp.empty Z Z1 Z2) Z))))
(assert (forall ((A tptp.ty) (Z tptp.uni) (Z1 tptp.uni) (Z2 tptp.uni) (U tptp.context) (U1 tptp.expr)) (=> (tptp.sort A Z1) (= (tptp.match_context A (tptp.left U U1) Z Z1 Z2) Z1))))
(assert (forall ((A tptp.ty) (Z tptp.uni) (Z1 tptp.uni) (Z2 tptp.uni) (U Int) (U1 tptp.context)) (=> (tptp.sort A Z2) (= (tptp.match_context A (tptp.right U U1) Z Z1 Z2) Z2))))
(assert (forall ((V tptp.context) (V1 tptp.expr)) (not (= tptp.empty (tptp.left V V1)))))
(assert (forall ((V Int) (V1 tptp.context)) (not (= tptp.empty (tptp.right V V1)))))
(assert (forall ((U tptp.context) (U1 tptp.expr) (V Int) (V1 tptp.context)) (not (= (tptp.left U U1) (tptp.right V V1)))))
(declare-fun tptp.left_proj_1 (tptp.context) tptp.context)
(assert (forall ((U tptp.context) (U1 tptp.expr)) (= (tptp.left_proj_1 (tptp.left U U1)) U)))
(declare-fun tptp.left_proj_2 (tptp.context) tptp.expr)
(assert (forall ((U tptp.context) (U1 tptp.expr)) (= (tptp.left_proj_2 (tptp.left U U1)) U1)))
(declare-fun tptp.right_proj_1 (tptp.context) Int)
(assert (forall ((U Int) (U1 tptp.context)) (= (tptp.right_proj_1 (tptp.right U U1)) U)))
(declare-fun tptp.right_proj_2 (tptp.context) tptp.context)
(assert (forall ((U Int) (U1 tptp.context)) (= (tptp.right_proj_2 (tptp.right U U1)) U1)))
(assert (forall ((U tptp.context)) (or (= U tptp.empty) (= U (tptp.left (tptp.left_proj_1 U) (tptp.left_proj_2 U))) (= U (tptp.right (tptp.right_proj_1 U) (tptp.right_proj_2 U))))))
(declare-fun tptp.size_c2 (tptp.context) Int)
(assert (and (= (tptp.size_c2 tptp.empty) 0) (forall ((X tptp.context) (X1 tptp.expr)) (= (tptp.size_c2 (tptp.left X X1)) (+ (+ 2 (tptp.size_c2 X)) (tptp.size_e1 X1)))) (forall ((X Int) (X1 tptp.context)) (= (tptp.size_c2 (tptp.right X X1)) (+ 1 (tptp.size_c2 X1))))))
(assert (forall ((C tptp.context)) (<= 0 (tptp.size_c2 C))))
(declare-fun tptp.recompose (tptp.context tptp.expr) tptp.expr)
(assert (forall ((E tptp.expr)) (and (= (tptp.recompose tptp.empty E) E) (forall ((X tptp.context) (X1 tptp.expr)) (= (tptp.recompose (tptp.left X X1) E) (tptp.recompose X (tptp.sub E X1)))) (forall ((X Int) (X1 tptp.context)) (= (tptp.recompose (tptp.right X X1) E) (tptp.recompose X1 (tptp.sub (tptp.cte X) E)))))))
(assert (forall ((C tptp.context) (E1 tptp.expr) (E2 tptp.expr)) (=> (= (tptp.eval_0 E1) (tptp.eval_0 E2)) (= (tptp.eval_0 (tptp.recompose C E1)) (tptp.eval_0 (tptp.recompose C E2))))))
(assert (forall ((C tptp.context) (E tptp.expr)) (=> (= (tptp.eval_0 E) tptp.underflow) (= (tptp.eval_0 (tptp.recompose C E)) tptp.underflow))))
(assert (not (forall ((C tptp.context) (N Int)) (=> (<= 0 N) (forall ((X Int) (X1 tptp.context)) (=> (= C (tptp.right X X1)) (=> (<= N X) (= (tptp.eval_0 (tptp.recompose X1 (tptp.cte (- X N)))) (tptp.eval_0 (tptp.recompose C (tptp.cte N)))))))))))
(check-sat)
(exit)
